clingo version 5.6.2
Reading from ...gen_asp_scripts/ijp_expt_cases-1084.dl
Solving...
Answer: 1
res(3) witness(3,3,2) witness(3,4,2) witness(5,1,2) witness(6,2,4) witness(6,3,4) witness(3,3,6) witness(3,4,6) witness(6,2,6) witness(6,3,6) number_of_witnesses(9)
Optimization: 9
